nohup: ignoring input
original problem has 3648 variables (192 bin, 0 int, 0 impl, 3456 cont) and 3312 constraints
original problem has 842 variables (421 bin, 0 int, 0 impl, 421 cont) and 479 constraints
original problem has 2728 variables (1364 bin, 0 int, 0 impl, 1364 cont) and 1442 constraints
original problem has 8904 variables (8904 bin, 0 int, 0 impl, 0 cont) and 1069 constraints
original problem has 7195 variables (7195 bin, 0 int, 0 impl, 0 cont) and 714 constraints
original problem has 6000 variables (6000 bin, 0 int, 0 impl, 0 cont) and 2171 constraints
original problem has 13873 variables (552 bin, 0 int, 0 impl, 13321 cont) and 3215 constraints
original problem has 521 variables (56 bin, 0 int, 0 impl, 465 cont) and 688 constraints
original problem has 67732 variables (67732 bin, 0 int, 0 impl, 0 cont) and 656 constraints
original problem has 63009 variables (63009 bin, 0 int, 0 impl, 0 cont) and 507 constraints
original problem has 1298 variables (1254 bin, 0 int, 0 impl, 44 cont) and 353 constraints
original problem has 322 variables (302 bin, 0 int, 0 impl, 20 cont) and 394 constraints
original problem has 2993 variables (2993 bin, 0 int, 0 impl, 0 cont) and 102 constraints
original problem has 1156 variables (1089 bin, 0 int, 0 impl, 67 cont) and 2178 constraints
original problem has 260 variables (259 bin, 0 int, 0 impl, 1 cont) and 224 constraints
original problem has 5325 variables (5323 bin, 0 int, 0 impl, 2 cont) and 3411 constraints
original problem has 10958 variables (96 bin, 0 int, 0 impl, 10862 cont) and 4480 constraints
original problem has 5174 variables (2349 bin, 0 int, 0 impl, 2825 cont) and 26509 constraints
original problem has 6621 variables (6620 bin, 0 int, 0 impl, 1 cont) and 721 constraints
original problem has 769 variables (768 bin, 0 int, 0 impl, 1 cont) and 64 constraints
original problem has 2756 variables (2756 bin, 0 int, 0 impl, 0 cont) and 729 constraints
original problem has 1835 variables (1835 bin, 0 int, 0 impl, 0 cont) and 2387 constraints
original problem has 840 variables (48 bin, 0 int, 0 impl, 792 cont) and 1192 constraints
miplib_39binary-small
firstsol
symmetric
seed: 0
cpu
Traceback (most recent call last):
  File "compute_evaluation_results_scip.py", line 101, in <module>
    run_localbranch.primal_integral_03(
  File "/home/liudefen/projects/ML4LocalBranch_extend/execute_heuristics.py", line 553, in primal_integral_03
    with gzip.open(filename, 'rb') as f:
  File "/home/liudefen/opt/python3.8.0/lib/python3.8/gzip.py", line 58, in open
    binary_file = GzipFile(filename, gz_mode, compresslevel)
  File "/home/liudefen/opt/python3.8.0/lib/python3.8/gzip.py", line 173, in __init__
    fileobj = self.myfileobj = builtins.open(filename, mode or 'rb')
FileNotFoundError: [Errno 2] No such file or directory: './result/generated_instances/miplib_39binary/-small/firstsol/scip/heuristic_mode/lb-from-firstsol-t_total600s-t_node2s-small_lb_k0_rl_beforenode_freq10/seed0/lb-test-miplib_39binary-23_transformed_qiu.pkl'
